s td 28 8 35
b 1 10 27 35
b 2 30 32
b 3 28 33
b 4 9 13 30
b 5 5 11 25
b 6 12 17 26
b 7 20 22 30
b 8 10 19 29
b 9 6 10 35
b 10 2 14 28 34
b 11 16 18 24 31
b 12 3 6 23 30
b 13 4 14 15 28 34
b 14 1 8 10 15 16 25 26
b 15 6 8 10 15 16 25 26 34
b 16 6 8 10 15 25 30 34
b 17 6 7 8 10 15 25 30
b 18 6 7 8 10 21 30
b 19 3 6 7 21 30
b 20 6 7 13 25 30
b 21 6 7 8 20 30
b 22 4 6 15 25 26 34
b 23 4 14 15 25 34
b 24 6 10 15 16 24 25 34
b 25 10 16 24 31 34
b 26 1 5 10 16 25 26
b 27 5 10 16 19 26
b 28 8 17 25 26
1 9
2 16
3 13
4 20
5 26
6 28
7 21
8 27
9 15
10 13
11 25
12 19
13 23
14 15
14 26
14 28
15 16
15 22
15 24
16 17
17 18
17 20
17 21
18 19
22 23
24 25
26 27
